\* SchedulingCourses *\
Minimize
OBJ: 4.5 y(ALGO) + 4.5 y(BREADTH) + 4.5 y(ELECT) + 4.5 y(ELECT_THESIS)
 + 4.5 y(NET_BREADTH_DOUBLE) + 4.5 y(SYS_NET) + 13.5 y(THESIS) + 4.5 y(THRY)
 + 0.01 z(CS_MS_TOTAL_CREDITS)
Subject To
SR(CS_MS_ALGO): 4.5 x(ALGO)(CS_MS_TOTAL_CREDITS) >= 4.5
SR(CS_MS_BREADTH): 4.5 x(BREADTH)(CS_MS_TOTAL_CREDITS)
 + 4.5 x(NET_BREADTH_DOUBLE)(CS_MS_TOTAL_CREDITS) >= 4.5
SR(CS_MS_SYS_NETWORKS): 4.5 x(NET_BREADTH_DOUBLE)(CS_MS_TOTAL_CREDITS)
 + 4.5 x(SYS_NET)(CS_MS_TOTAL_CREDITS) >= 4.5
SR(CS_MS_THEORY): 4.5 x(THRY)(CS_MS_TOTAL_CREDITS) >= 4.5
SR(CS_THESIS_CAP): - 13.5 x(THESIS)(CS_MS_TOTAL_CREDITS) >= -13.5
SR(CS_THESIS_DISP_CAP): - 4.5 x(ELECT_THESIS)(CS_MS_TOTAL_CREDITS) >= -13.5
reqMin(CS_MS_TOTAL_CREDITS): 4.5 x(ALGO)(CS_MS_TOTAL_CREDITS)
 + 4.5 x(BREADTH)(CS_MS_TOTAL_CREDITS) + 4.5 x(ELECT)(CS_MS_TOTAL_CREDITS)
 + 4.5 x(ELECT_THESIS)(CS_MS_TOTAL_CREDITS)
 + 4.5 x(NET_BREADTH_DOUBLE)(CS_MS_TOTAL_CREDITS)
 + 4.5 x(SYS_NET)(CS_MS_TOTAL_CREDITS) + 13.5 x(THESIS)(CS_MS_TOTAL_CREDITS)
 + 4.5 x(THRY)(CS_MS_TOTAL_CREDITS) - z(CS_MS_TOTAL_CREDITS) = 45
setY1(ALGO): x(ALGO)(CS_MS_TOTAL_CREDITS) - y(ALGO) <= 0
setY1(BREADTH): x(BREADTH)(CS_MS_TOTAL_CREDITS) - y(BREADTH) <= 3
setY1(ELECT): x(ELECT)(CS_MS_TOTAL_CREDITS) - y(ELECT) <= 0
setY1(ELECT_THESIS): x(ELECT_THESIS)(CS_MS_TOTAL_CREDITS) - y(ELECT_THESIS)
 <= 0
setY1(NET_BREADTH_DOUBLE): x(NET_BREADTH_DOUBLE)(CS_MS_TOTAL_CREDITS)
 - y(NET_BREADTH_DOUBLE) <= 0
setY1(SYS_NET): x(SYS_NET)(CS_MS_TOTAL_CREDITS) - y(SYS_NET) <= 0
setY1(THESIS): x(THESIS)(CS_MS_TOTAL_CREDITS) - y(THESIS) <= 0
setY1(THRY): x(THRY)(CS_MS_TOTAL_CREDITS) - y(THRY) <= 0
Bounds
 0 <= x(ALGO)(CS_MS_TOTAL_CREDITS) <= 3
 0 <= x(BREADTH)(CS_MS_TOTAL_CREDITS) <= 48
 0 <= x(ELECT)(CS_MS_TOTAL_CREDITS) <= 8
 0 <= x(ELECT_THESIS)(CS_MS_TOTAL_CREDITS) <= 4
 0 <= x(SYS_NET)(CS_MS_TOTAL_CREDITS) <= 9
 0 <= x(THRY)(CS_MS_TOTAL_CREDITS) <= 4
 0 <= y(ALGO) <= 3
 0 <= y(BREADTH) <= 45
 0 <= y(ELECT) <= 8
 0 <= y(ELECT_THESIS) <= 4
 0 <= y(SYS_NET) <= 9
 0 <= y(THRY) <= 4
 0 <= z(CS_MS_TOTAL_CREDITS)
Generals
x(ALGO)(CS_MS_TOTAL_CREDITS)
x(BREADTH)(CS_MS_TOTAL_CREDITS)
x(ELECT)(CS_MS_TOTAL_CREDITS)
x(ELECT_THESIS)(CS_MS_TOTAL_CREDITS)
x(SYS_NET)(CS_MS_TOTAL_CREDITS)
x(THRY)(CS_MS_TOTAL_CREDITS)
y(ALGO)
y(BREADTH)
y(ELECT)
y(ELECT_THESIS)
y(SYS_NET)
y(THRY)
Binaries
x(NET_BREADTH_DOUBLE)(CS_MS_TOTAL_CREDITS)
x(THESIS)(CS_MS_TOTAL_CREDITS)
y(NET_BREADTH_DOUBLE)
y(THESIS)
End
